jobs  (incl. supersource/sink ):	52
RESOURCES
- renewable                 : 2 R
- nonrenewable              : 4 N
- doubly constrained        : 0 D
************************************************************************
PRECEDENCE RELATIONS:
jobnr.    #modes  #successors   successors
1	1	4		2 3 4 9 
2	3	4		15 10 8 6 
3	3	4		15 12 11 5 
4	3	3		18 10 7 
5	3	7		23 22 20 19 18 16 13 
6	3	6		23 20 18 16 14 11 
7	3	6		23 22 20 19 16 13 
8	3	6		25 23 22 16 14 13 
9	3	5		25 23 22 19 13 
10	3	4		22 19 16 13 
11	3	4		31 28 22 19 
12	3	3		28 25 17 
13	3	2		28 17 
14	3	3		31 28 21 
15	3	2		28 19 
16	3	4		32 31 28 24 
17	3	2		31 21 
18	3	2		25 21 
19	3	1		21 
20	3	1		21 
21	3	2		32 24 
22	3	3		34 32 26 
23	3	5		36 34 31 30 27 
24	3	2		34 26 
25	3	4		36 32 30 27 
26	3	3		36 30 27 
27	3	2		33 29 
28	3	1		29 
29	3	5		47 41 40 39 35 
30	3	6		47 45 41 40 38 37 
31	3	6		47 43 40 39 38 37 
32	3	5		47 40 39 38 37 
33	3	4		47 41 39 37 
34	3	3		40 39 37 
35	3	3		43 38 37 
36	3	5		51 50 49 45 44 
37	3	3		50 49 42 
38	3	4		51 50 49 46 
39	3	3		51 50 45 
40	3	3		51 50 46 
41	3	2		46 43 
42	3	1		44 
43	3	2		49 48 
44	3	1		46 
45	3	1		46 
46	3	1		48 
47	3	1		49 
48	3	1		52 
49	3	1		52 
50	3	1		52 
51	3	1		52 
52	1	0		
************************************************************************
REQUESTS/DURATIONS
jobnr.	mode	dur	R1	R2	N1	N2	N3	N4	
------------------------------------------------------------------------
1	1	0	0	0	0	0	0	0	
2	1	1	5	4	7	9	9	6	
	2	4	4	3	7	7	5	5	
	3	5	3	2	7	6	3	4	
3	1	5	5	9	9	5	6	10	
	2	6	5	6	6	4	5	8	
	3	9	3	3	3	4	3	7	
4	1	3	6	7	9	7	10	9	
	2	6	5	7	6	5	7	8	
	3	9	2	7	5	3	5	7	
5	1	3	4	10	9	1	8	7	
	2	5	2	9	8	1	7	6	
	3	9	2	8	7	1	7	6	
6	1	1	5	8	5	9	6	5	
	2	7	5	8	4	9	6	5	
	3	9	5	8	4	9	5	1	
7	1	2	9	7	8	8	6	7	
	2	6	6	7	6	7	5	6	
	3	9	1	3	6	6	4	6	
8	1	2	8	7	4	6	8	6	
	2	3	5	5	2	5	7	5	
	3	8	5	4	1	3	6	5	
9	1	3	7	7	4	6	8	7	
	2	4	3	4	3	5	6	5	
	3	5	3	2	2	5	5	4	
10	1	1	7	9	9	4	10	8	
	2	4	7	8	7	4	9	7	
	3	5	3	8	6	4	9	7	
11	1	2	7	6	7	7	10	3	
	2	5	6	4	4	5	9	2	
	3	7	4	2	1	5	8	2	
12	1	4	8	8	7	8	8	6	
	2	7	8	6	7	5	4	5	
	3	8	7	5	7	5	3	4	
13	1	2	4	7	2	4	4	10	
	2	3	3	7	2	3	3	8	
	3	5	3	5	2	3	3	6	
14	1	1	9	5	8	10	9	8	
	2	3	8	3	8	9	5	7	
	3	9	8	2	8	8	3	5	
15	1	2	9	6	10	6	9	7	
	2	6	7	5	9	4	6	6	
	3	7	6	4	9	2	5	5	
16	1	5	4	8	4	2	6	9	
	2	6	3	7	4	2	6	7	
	3	7	2	6	4	2	1	4	
17	1	5	6	9	6	1	5	10	
	2	7	6	7	4	1	3	9	
	3	9	6	3	3	1	3	8	
18	1	2	5	8	6	6	8	4	
	2	4	4	7	5	6	6	4	
	3	5	2	6	4	6	6	1	
19	1	1	4	6	8	8	5	7	
	2	4	4	3	3	5	3	3	
	3	8	1	1	1	3	3	3	
20	1	2	5	7	5	5	8	5	
	2	4	5	6	5	5	5	3	
	3	7	4	5	4	5	3	3	
21	1	3	4	8	5	9	1	8	
	2	9	3	6	5	9	1	6	
	3	10	3	5	5	9	1	6	
22	1	1	6	6	6	6	9	7	
	2	4	5	4	5	5	5	3	
	3	9	3	3	2	3	3	3	
23	1	2	6	8	4	7	7	5	
	2	4	4	8	3	7	5	3	
	3	5	4	6	3	7	4	3	
24	1	2	8	6	7	3	7	9	
	2	6	4	4	5	3	6	7	
	3	8	1	2	1	2	6	5	
25	1	3	9	2	6	4	8	6	
	2	6	9	1	6	3	6	3	
	3	7	9	1	4	2	5	3	
26	1	1	10	2	4	5	8	1	
	2	3	8	1	3	3	5	1	
	3	6	8	1	3	2	5	1	
27	1	2	6	5	6	4	6	2	
	2	4	5	3	3	3	4	2	
	3	5	4	2	2	3	3	2	
28	1	2	10	9	7	5	8	3	
	2	6	7	4	7	4	7	3	
	3	8	1	3	7	3	5	2	
29	1	2	5	4	2	4	4	6	
	2	4	5	4	1	2	3	4	
	3	8	5	3	1	1	3	4	
30	1	4	9	4	6	7	9	4	
	2	5	7	3	5	5	7	2	
	3	7	6	2	5	4	7	1	
31	1	2	4	3	7	4	7	9	
	2	3	4	2	6	4	4	9	
	3	5	4	1	5	4	2	7	
32	1	1	7	8	6	8	4	7	
	2	2	5	5	5	5	4	6	
	3	3	5	5	5	2	4	5	
33	1	1	5	10	8	5	3	7	
	2	5	3	5	6	4	3	5	
	3	9	2	5	3	3	2	4	
34	1	4	8	3	5	9	9	5	
	2	5	7	2	3	8	7	3	
	3	6	5	1	2	7	6	1	
35	1	1	8	4	9	3	8	8	
	2	3	6	3	6	2	6	6	
	3	7	6	2	6	2	2	3	
36	1	6	4	8	4	10	9	7	
	2	9	4	7	4	6	7	5	
	3	10	3	6	4	3	4	5	
37	1	6	8	6	10	10	4	3	
	2	7	7	6	7	8	2	3	
	3	10	7	6	6	6	2	3	
38	1	6	4	4	4	4	2	6	
	2	8	2	4	4	3	2	5	
	3	9	1	4	3	3	1	4	
39	1	1	5	8	4	4	9	7	
	2	9	3	7	4	4	7	5	
	3	10	3	6	2	4	4	4	
40	1	1	10	9	4	4	10	3	
	2	5	7	9	3	3	8	3	
	3	8	6	9	3	3	8	1	
41	1	1	8	7	3	4	10	8	
	2	7	5	7	3	3	6	5	
	3	8	4	5	1	1	6	3	
42	1	1	7	1	2	8	5	4	
	2	4	5	1	1	6	4	2	
	3	5	4	1	1	5	4	2	
43	1	3	4	5	7	10	9	10	
	2	6	3	3	7	9	8	7	
	3	7	3	2	7	8	8	6	
44	1	1	7	10	6	7	5	6	
	2	2	7	8	6	6	5	5	
	3	4	7	8	5	6	4	5	
45	1	4	10	10	3	8	8	4	
	2	8	8	7	1	6	7	2	
	3	10	6	5	1	4	5	1	
46	1	5	6	5	4	10	6	10	
	2	6	4	4	4	9	4	7	
	3	7	4	3	3	8	4	5	
47	1	3	10	8	9	7	7	7	
	2	7	8	8	8	7	5	4	
	3	8	6	8	7	6	5	4	
48	1	4	5	8	3	10	8	8	
	2	5	3	6	3	5	6	5	
	3	7	2	6	1	2	4	2	
49	1	1	10	6	9	3	7	7	
	2	6	4	5	8	3	5	6	
	3	7	3	5	8	2	5	3	
50	1	2	8	5	2	6	9	8	
	2	3	6	5	2	6	8	7	
	3	10	3	5	2	6	7	3	
51	1	7	3	4	5	2	4	7	
	2	8	2	2	5	2	2	6	
	3	9	2	2	5	1	2	2	
52	1	0	0	0	0	0	0	0	
************************************************************************

 RESOURCE AVAILABILITIES 
	R 1	R 2	N 1	N 2	N 3	N 4
	18	22	269	277	318	292

************************************************************************
